%%% static parameters %%%
timespan = 1;
Fact = [4];
Distr1 = [15];
Distr2 = [30];
Clients_N = [1000];
Demand_W = [15];
Lt0 = [4];
Lt1 = [4];
SS_ = [0.85];
DS_D = [8];
K = [200];
MA = [500];
%%% dynamic parameters %%%
lost_ratio_sales_ret_th = 0.5796467507284686;
lost_ratio_sales_ret_w = 88;
lost_ratio_sales_dis_th = 0.16212636270430314;
lost_ratio_sales_dis_w = 19;
lost_ratio_sales_fac_th = 0.046390606149768865;
lost_ratio_sales_fac_w = 86;
stock_customer_MA_mean_relative_th = 0.8128571781103636;
stock_customer_MA_mean_relative_w = 55;
stock_distributor_MA_mean_relative_th = 0.8045581405304971;
stock_distributor_MA_mean_relative_w = 97;
stock_retailer_MA_mean_relative_th = 0.38508298806601216;
stock_retailer_MA_mean_relative_w = 17;
stock_factory_MA_mean_relative_th = 0.41135295521992465;
stock_factory_MA_mean_relative_w = 59;
